# Objective value = 3.0748070605148450e+02
x[0] 0
x[1] 0
x[2] 1
x[3] 1
x[4] 0
x[5] -3.9855718242212087e-07
x[6] 5.7066217496760242e-08
x[7] 0
x[8] 0
x[9] 0
x[10] 9.9999989257435973e-01
x[11] 0
x[12] 1
x[13] 1
x[14] 0
x[15] 0
x[16] 1
x[17] 0
x[18] 1
x[19] -8.8537989681299564e-08
x[20] 0
x[21] 1
x[22] 1
x[23] 1
x[24] 0
x[25] 1
x[26] 0
x[27] 0
x[28] 0
x[29] 0
x[30] 1
x[31] 1
x[32] 0
x[33] 0
x[34] -2.1218693090769139e-07
x[35] 0
x[36] 1
x[37] 0
x[38] 0
x[39] 1
x[40] 1
x[41] 1
x[42] 0
x[43] 0
x[44] 0
x[45] 0
x[46] 1
x[47] 1
x[48] 1.0000002147856666e+00
x[49] 1
x[50] 0
x[51] 1
x[52] 1
x[53] 0
x[54] 1
x[55] 1
x[56] -2.1485128112538383e-07
x[57] 0
x[58] 1
x[59] 1
x[60] 0
x[61] 1
x[62] 1
x[63] 1
x[64] 0
x[65] 1
x[66] -2.7204060715213529e-07
x[67] 1
x[68] 0
x[69] 0
x[70] 0
x[71] 1
x[72] 1.0000001064531792e+00
x[73] 0
x[74] 0
x[75] 1
x[76] 1
x[77] 0
x[78] 0
x[79] 1
x[80] 0
x[81] 0
x[82] 0
x[83] 0
x[84] 1
x[85] 0
x[86] 3.8479641555274995e-07
x[87] 0
x[88] 0
x[89] 0
x[90] 0
x[91] 0
x[92] 1
x[93] 1
x[94] 1
x[95] 0
x[96] 1
x[97] 0
x[98] -2.1485128121057073e-07
x[99] 1
x[100] 0
x[101] 0
x[102] 1
x[103] 1.0000004296104
x[104] 1
x[105] 1
x[106] 0
x[107] 1.0000000883929079e+00
x[108] 0
x[109] 0
x[110] 1
x[111] 0
x[112] 1
x[113] 1
x[114] 1
x[115] 1
x[116] 9.9999998444568261e-01
x[117] 0
x[118] 0
x[119] 1
x[120] 1
x[121] 0
x[122] 1
x[123] 1
x[124] 1
x[125] -4.0189051551571058e-07
x[126] 0
x[127] 1
x[128] 0
x[129] 0
x[130] 1
x[131] 0
x[132] 0
x[133] 0
x[134] 0
x[135] 0
x[136] 0
x[137] 1
x[138] 1
x[139] 1
x[140] 1
x[141] 1
x[142] 0
x[143] -2.1485128121057073e-07
x[144] 0
x[145] 1
x[146] 1
x[147] 0
x[148] -2.1151794787723740e-07
x[149] 1
x[150] 1
x[151] 1
x[152] 0
x[153] 1
x[154] 1
x[155] 0
x[156] 1
x[157] 1
x[158] 0
x[159] 0
x[160] 1
x[161] 0
x[162] 0
x[163] 1
x[164] 1
x[165] 1.0000002147275189e+00
x[166] 1.0000002147624114e+00
x[167] 0
x[168] 1
x[169] 0
x[170] 0
x[171] 1
x[172] 0
x[173] 0
x[174] 1
x[175] 0
x[176] 1
x[177] -2.7204060737775443e-07
x[178] 0
x[179] 1.0000004017100270e+00
x[180] 0
x[181] 0
x[182] 1
x[183] 1
x[184] 1
x[185] 1
x[186] 0
x[187] 0
x[188] 0
x[189] 1
x[190] 1
x[191] 0
x[192] 1
x[193] 1
x[194] 1.0000002719306427e+00
x[195] 0
x[196] 1
x[197] 0
x[198] 1
x[199] 0
x[200] 1.8836892536558434e-08
x[201] -2.1151794787723740e-07
x[202] 1
x[203] 0
x[204] 0
x[205] 1
x[206] 0
x[207] 0
x[208] 1.0000004295785527e+00
x[209] -2.9092825792886856e-07
x[210] 1
x[211] 1
x[212] 0
x[213] 1
x[214] 1
x[215] 0
x[216] 1
x[217] 0
x[218] 1
x[219] 1
x[220] 1
x[221] 0
x[222] 1.8834286559444281e-08
x[223] 1
x[224] 1.0000002147828648e+00
x[225] 1
x[226] 0
x[227] 1
x[228] 0
x[229] 0
x[230] 0
x[231] 1
x[232] 0
x[233] 1
x[234] 1
x[235] 0
x[236] 0
x[237] 1
x[238] 0
x[239] 0
x[240] 0
x[241] 1
x[242] 0
x[243] 1
x[244] 1
x[245] -4.2970256219909686e-07
x[246] 1
x[247] 0
x[248] 0
x[249] 0
x[250] 1
x[251] 0
x[252] 1
x[253] 1
x[254] 0
x[255] 1.0000001073441682e+00
x[256] 1
x[257] 1
x[258] 0
x[259] 1
x[260] 1
x[261] 0
x[262] -1.0742564060528537e-07
x[263] 0
x[264] 1
x[265] 0
x[266] 0
x[267] 1
x[268] 1
x[269] 0
x[270] 1
x[271] 0
x[272] 0
x[273] 1
x[274] -4.2636922891743433e-07
x[275] 1.0000002147808038e+00
x[276] 1
x[277] 1.0000002147183418e+00
x[278] 0
x[279] 9.9999998403790569e-01
x[280] 1
x[281] 1
x[282] 0
x[283] 1.0000001072239870e+00
x[284] 0
x[285] 1
x[286] 0
x[287] 1.0000000884802143e+00
x[288] 1
x[289] 1
x[290] 0
x[291] 1
x[292] 1.0000002147919707e+00
x[293] 1
x[294] 0
x[295] 0
x[296] 1
x[297] 1
x[298] 0
x[299] 1.0000002718200447e+00
x[300] -1.0543559160016812e-07
x[301] 0
x[302] 0
x[303] -2.1485128121057073e-07
x[304] 1
x[305] 1
x[306] 0
x[307] 1
x[308] 0
x[309] 1
x[310] 1.0000002719633361e+00
x[311] 0
x[312] 0
x[313] 0
x[314] 1
x[315] 1
x[316] 0
x[317] 0
x[318] 1
x[319] 1
x[320] 0
x[321] -2.7204060715570983e-07
x[322] 1
x[323] 0
x[324] 1
x[325] 0
x[326] 2.8532994049409331e-08
x[327] 1
x[328] 1
x[329] 0
x[330] 0
x[331] 1.0000002147911689e+00
x[332] 1
x[333] 0
x[334] 1
x[335] 0
x[336] 1
x[337] -2.6870727381880196e-07
x[338] 0
x[339] -2.1485128121057073e-07
x[340] -1.3602030368708995e-07
x[341] 1
x[342] 0
x[343] 1
x[344] 0
x[345] 1
x[346] 1.0000004018382347e+00
x[347] 1
x[348] 1.0000002147918952e+00
x[349] 0
x[350] 1
x[351] 0
x[352] 0
x[353] 1
x[354] 0
x[355] 0
x[356] 0
x[357] 3.2217924767672359e-07
x[358] 0
x[359] 1
x[360] 0
x[361] 1
x[362] 1
x[363] 1
x[364] 0
x[365] 0
x[366] 1
x[367] 1
x[368] 1
x[369] 1
x[370] 0
x[371] 0
x[372] 1
x[373] 1
x[374] 1
x[375] 1
x[376] 1
x[377] 1.0000002147927454e+00
x[378] 9.9999967772307852e-01
x[379] 9.9999989590769289e-01
x[380] 1
x[381] 1
x[382] 1
x[383] 0
x[384] 1
x[385] 1
x[386] 0
x[387] 1
x[388] 1
x[389] 0
x[390] 1
x[391] 0
x[392] 1.0000002147057181e+00
x[393] 1
x[394] 0
x[395] 1
x[396] 1
x[397] 0
x[398] 0
x[399] 1
x[400] 0
x[401] 1
x[402] 1.0000004017810733e+00
x[403] 1
x[404] 1
x[405] 0
x[406] 1
x[407] 0
x[408] 0
x[409] 0
x[410] 1
x[411] 0
x[412] 1
x[413] 0
x[414] 1
x[415] 1
x[416] 0
x[417] 0
x[418] 0
x[419] 0
x[420] 0
x[421] 1
x[422] 1
x[423] 1
x[424] 1
x[425] -2.1485128121057073e-07
x[426] 1
x[427] 0
x[428] 1
x[429] 0
x[430] 0
x[431] 0
x[432] 1
x[433] 0
x[434] 1.0000001073060145e+00
x[435] 0
x[436] 1
x[437] 1
x[438] 0
x[439] 1.8512324331606121e-08
x[440] 0
x[441] 0
x[442] 0
x[443] -2.1485128098852613e-07
x[444] 1.0708803110540704e-07
x[445] 0
x[446] 0
x[447] 0
x[448] 1
x[449] 1
x[450] 1
x[451] 0
x[452] 0
x[453] 0
x[454] 0
x[455] 1
x[456] 1.0000001359684945e+00
x[457] 0
x[458] 0
x[459] 0
x[460] 1
x[461] 0
x[462] 1
x[463] 0
x[464] 0
x[465] 1.0000002719850236e+00
x[466] 1
x[467] 1
x[468] 1
x[469] 1
x[470] 0
x[471] 0
x[472] 1
x[473] 1
x[474] 0
x[475] 1
x[476] -2.1485128122153197e-07
x[477] 1
x[478] 0
x[479] 1
x[480] 1.0000002147917144e+00
x[481] 0
x[482] 1
x[483] 0
x[484] 1
x[485] 0
x[486] 1
x[487] 0
x[488] 1
x[489] 1
x[490] 1
x[491] 1
x[492] 1.0000001073754832e+00
x[493] 1
x[494] 0
x[495] 1
x[496] 0
x[497] -1.3268697035375661e-07
x[498] 1
x[499] 1.0000004014751953e+00
x[500] 1
x[501] 1
x[502] 1
x[503] -8.85379896065075e-08
x[504] 0
x[505] 0
x[506] 0
x[507] 0
x[508] 1
x[509] 1
x[510] 0
x[511] 0
x[512] 1
x[513] 3.2218308788702896e-07
x[514] 0
x[515] 1
x[516] 1
x[517] 0
x[518] 1.0000002147762554e+00
x[519] 1
x[520] 0
x[521] 1
x[522] 1
x[523] 1.0000002719871381e+00
x[524] 1
x[525] 9.9999998449644079e-01
x[526] 0
x[527] 0
x[528] 1
x[529] 0
x[530] 0
x[531] 1
x[532] 1
x[533] 0
x[534] -2.1485128122153197e-07
x[535] -3.2227692159381149e-07
x[536] 0
x[537] 1
x[538] 1
x[539] 1
x[540] 1
x[541] 1
x[542] 0
x[543] 0
x[544] 0
x[545] 0
x[546] 1
x[547] 0
x[548] 0
x[549] 1
x[550] 1
x[551] 1
x[552] 1
x[553] 1
x[554] 1
x[555] 3.2220746339972923e-07
x[556] 1
x[557] 1
x[558] 0
x[559] 0
x[560] 3.2209527548485592e-07
x[561] 1
x[562] 1
x[563] 0
x[564] -2.8759492459553522e-07
x[565] 0
x[566] 1.00000008560499
x[567] 1
x[568] 1.0000002147926992e+00
x[569] 1
x[570] 1.0000004296452583e+00
x[571] -3.9963344196933606e-07
x[572] 1
x[573] 0
x[574] 0
x[575] 1
x[576] 3.84630400774263e-07
x[577] 0
x[578] 1
x[579] 1
x[580] 1
x[581] 9.9999967772307841e-01
x[582] 1
x[583] 1
x[584] 1
x[585] 0
x[586] 0
x[587] 1
x[588] 0
x[589] 1
x[590] 1
x[591] 9.9999961514503544e-01
x[592] 0
x[593] 1
x[594] 0
x[595] 0
x[596] 0
x[597] 0
x[598] 0
x[599] 1
x[600] 1
x[601] 0
x[602] 1
x[603] 9.9999978848205218e-01
x[604] 0
x[605] 0
x[606] 0
x[607] -1.0409230727678081e-07
x[608] 1
x[609] 0
x[610] 0
x[611] 0
x[612] 1
x[613] 1
x[614] 1.0000002147689142e+00
x[615] 0
x[616] 1
x[617] 0
x[618] 1
x[619] 1
x[620] 0
x[621] 1
x[622] 1
x[623] 0
x[624] 1
x[625] 1
x[626] 1
x[627] 0
x[628] 1.0000004270180860e+00
x[629] 1
x[630] 0
x[631] 1
x[632] 0
x[633] 1
x[634] 0
x[635] 0.999999971405337
x[636] 1
x[637] -2.1145941203193717e-07
x[638] 1
x[639] 0
x[640] 1
x[641] 0
x[642] 0
x[643] 1.0000004018320303e+00
x[644] 1
x[645] 1
x[646] 0
x[647] 1
x[648] 1
x[649] 0
x[650] 1
x[651] 1.8837442991024830e-08
x[652] 0
x[653] 1
x[654] 1
x[655] 1
x[656] 0
x[657] 9.9999968105641190e-01
x[658] 0
x[659] 0
x[660] 0
x[661] 0
x[662] 1
x[663] 1
x[664] 1.0000002719487950e+00
x[665] -2.1151794787723740e-07
x[666] 1
x[667] 1
x[668] 0
x[669] 0
x[670] 0
x[671] 1
x[672] 1
x[673] 0
x[674] 9.9999961514503488e-01
x[675] 1
x[676] 0
x[677] 1
x[678] 1
x[679] 9.9999961853691777e-01
x[680] -2.7204060715570983e-07
x[681] 1
x[682] 0
x[683] 0
x[684] 0
x[685] 0
x[686] 0
x[687] 0
x[688] 1.0000002147945768e+00
x[689] 0
x[690] 0
x[691] 0
x[692] 1
x[693] 0
x[694] 9.9999998111234922e-01
x[695] 1
x[696] 0
x[697] 0
x[698] 0
x[699] 0
x[700] 1
x[701] 0
x[702] 0
x[703] 0
x[704] 1.0000001073721263e+00
x[705] -4.0189051551295015e-07
x[706] 1
x[707] -1.3602030373486414e-07
x[708] 0
x[709] 0
x[710] 1
x[711] 0
x[712] 1.0000002651528113e+00
x[713] 0
x[714] 0
x[715] 1.0000001297787142e+00
x[716] 1
x[717] 1
x[718] 0
x[719] 0
x[720] 0
x[721] 0
x[722] -2.1146124336245233e-07
x[723] 0
x[724] 0
x[725] 0
x[726] 0
x[727] 1
x[728] 1
x[729] 0
x[730] 0
x[731] 0
x[732] 1
x[733] 1
x[734] 0
x[735] 1
x[736] 0
x[737] 0
x[738] 0
x[739] 1
x[740] 0
x[741] 0
x[742] 1
x[743] 1
x[744] 1.0000001359539212e+00
x[745] 1
x[746] 1
x[747] 1
x[748] 0
x[749] 1
x[750] 1
x[751] 0
x[752] 0
x[753] 1
x[754] 0
x[755] 1
x[756] 0
x[757] -4.0189051553340960e-07
x[758] 1
x[759] 0
x[760] 0
x[761] -6.1320517944398752e-07
x[762] 1
x[763] 0
x[764] 0
x[765] 0
x[766] 0
x[767] 0
x[768] 0
x[769] 1
x[770] 0
x[771] 0
x[772] 0
x[773] 1
x[774] 1
x[775] 1
x[776] 1
x[777] 0
x[778] 1
x[779] 0
x[780] 1
x[781] 0
x[782] 1
x[783] 0
x[784] 1
x[785] 1
x[786] 1
x[787] 1
x[788] 1
x[789] -2.6863000281903919e-07
x[790] 1.0000002135482753e+00
x[791] 1
x[792] 0
x[793] 1
x[794] 1.0000001359206383e+00
x[795] 1
x[796] 1
x[797] 1
x[798] 0
x[799] 0
x[800] 0
x[801] 0
x[802] -1.3262058800850902e-07
x[803] 0
x[804] 0
x[805] 0
x[806] 1
x[807] 1
x[808] 0
x[809] 0
x[810] -1.0742564051461785e-07
x[811] -2.1485128121057073e-07
x[812] 1.0000000884206173e+00
x[813] 1
x[814] -1.0742564060528537e-07
x[815] 9.9999998449589034e-01
x[816] 0
x[817] 1
x[818] -2.7204060715570983e-07
x[819] 1
x[820] -2.1151794779205050e-07
x[821] 1.0000002147917497e+00
x[822] 1
x[823] -2.1145838106587576e-07
x[824] 1
x[825] 0
x[826] 0
x[827] 0
x[828] 0
x[829] -2.0995230157765271e-07
x[830] 0
x[831] 0
x[832] 0
x[833] 3.2220242349150263e-07
x[834] 0
x[835] 0
x[836] -1.3602030373486414e-07
x[837] 1
x[838] 0
x[839] 0
x[840] 0
x[841] 0
x[842] 0
x[843] 1
x[844] 1
x[845] 0
x[846] 0
x[847] 0
x[848] 1
x[849] 0
x[850] 1
x[851] 1.0000004018360693e+00
x[852] 1.0000002719071697e+00
x[853] 0
x[854] 0
x[855] 0
x[856] 1.0000001065372879e+00
x[857] 1.8684833555755910e-08
x[858] 0
x[859] 0
x[860] 1
x[861] 1
x[862] 1
x[863] 1
x[864] 0
x[865] 1
x[866] 0
x[867] 1.0000001358684847e+00
x[868] 0
x[869] 0
x[870] 0
x[871] 0
x[872] 1
x[873] 1
x[874] 0
x[875] 1
x[876] 1.0000002719399812e+00
x[877] 0
x[878] 0
x[879] 0
x[880] -3.9777456589864434e-07
x[881] 0
x[882] 0
x[883] 0
x[884] 0
x[885] 0
x[886] 0
x[887] 0
x[888] -2.1377306509311766e-07
x[889] 0
x[890] 0
x[891] -2.6870727382237649e-07
x[892] 1
x[893] 0
x[894] -1.0742564060528537e-07
x[895] 0
x[896] 1
x[897] 1
x[898] 0
x[899] 0
x[900] 0
x[901] 0
x[902] 0
x[903] 1
x[904] 1
x[905] 0
x[906] 1
x[907] -2.7204060715213529e-07
x[908] 9.9999998111234922e-01
x[909] 0
x[910] 1
x[911] 1
x[912] 0
x[913] 1
x[914] 9.9999978855707794e-01
x[915] 0
x[916] 1
x[917] 0
x[918] 0
x[919] 1.0000002908662355e+00
x[920] 0
x[921] 0
x[922] 1
x[923] 0
x[924] -4.2636922886576352e-07
x[925] 0
x[926] -2.7204060712532056e-07
x[927] 0
x[928] 1
x[929] 0
x[930] 1
x[931] 1
x[932] -2.1485128098852613e-07
x[933] 0
x[934] 0
x[935] 1
x[936] 0
x[937] 0
x[938] 1.0000001073656419e+00
x[939] -2.6870727382197394e-07
x[940] 1
x[941] 0
x[942] 1
x[943] 0
x[944] 1
x[945] -2.1151794787723740e-07
x[946] 0
x[947] 1
x[948] 1
x[949] 1
x[950] 0
x[951] 1
x[952] 0
x[953] 1
x[954] 1
x[955] 1
x[956] 1
x[957] 0
x[958] 1.0000002147405411e+00
x[959] 1
x[960] 1
x[961] 0
x[962] 1
x[963] 0
x[964] 1
x[965] 0
x[966] 0
x[967] 1
x[968] 1
x[969] 0
x[970] 1
x[971] 1
x[972] 1.0000002147895672e+00
x[973] 0
x[974] -2.6860664795240092e-07
x[975] 1
x[976] 1
x[977] 0
x[978] 1
x[979] 1
x[980] 0
x[981] 1
x[982] 1.0000004295013529e+00
x[983] -2.1485128106370202e-07
x[984] 0
x[985] 0
x[986] 1.0000003222182730e+00
x[987] 1
x[988] 0
x[989] 1
x[990] 1
x[991] 1
x[992] 1
x[993] 1
x[994] 0
x[995] 0
x[996] 1.0000002719875705e+00
x[997] 0
x[998] 0
x[999] 0
